(set-option :produce-models true); benchmark generated from python API
(set-info :status unknown)
(declare-fun l_0_0_7 () Real)
(declare-fun l_0_0_1 () Real)
(declare-fun _a_0_ () Real)
(declare-fun l_0_0_9 () Real)
(declare-fun l_0_0_8 () Real)
(declare-fun l_0_0_3 () Real)
(declare-fun l_0_0_2 () Real)
(declare-fun _a_1_ () Real)
(declare-fun l_0_0_6 () Real)
(declare-fun l_0_0_5 () Real)
(declare-fun l_0_0_4 () Real)
(declare-fun l_0_0_12 () Real)
(declare-fun l_0_0_11 () Real)
(declare-fun l_0_0_10 () Real)
(declare-fun _a_2_ () Real)
(declare-fun _a_3_ () Real)
(declare-fun _a_4_ () Real)
(declare-fun _a_5_ () Real)
(declare-fun l_0_1_7 () Real)
(declare-fun l_0_1_13 () Real)
(declare-fun l_0_1_1 () Real)
(declare-fun l_0_1_18 () Real)
(declare-fun l_0_1_17 () Real)
(declare-fun l_0_1_16 () Real)
(declare-fun l_0_1_12 () Real)
(declare-fun l_0_1_11 () Real)
(declare-fun l_0_1_10 () Real)
(declare-fun l_0_1_4 () Real)
(declare-fun l_0_1_6 () Real)
(declare-fun l_0_1_5 () Real)
(declare-fun l_0_1_8 () Real)
(declare-fun l_0_1_14 () Real)
(declare-fun l_0_1_2 () Real)
(declare-fun l_0_1_9 () Real)
(declare-fun l_0_1_15 () Real)
(declare-fun l_0_1_3 () Real)
(declare-fun l_0_2_7 () Real)
(declare-fun l_0_2_13 () Real)
(declare-fun l_0_2_1 () Real)
(declare-fun l_0_2_9 () Real)
(declare-fun l_0_2_8 () Real)
(declare-fun l_0_2_15 () Real)
(declare-fun l_0_2_14 () Real)
(declare-fun l_0_2_2 () Real)
(declare-fun l_0_2_3 () Real)
(declare-fun l_0_2_17 () Real)
(declare-fun l_0_2_16 () Real)
(declare-fun l_0_2_11 () Real)
(declare-fun l_0_2_10 () Real)
(declare-fun l_0_2_4 () Real)
(declare-fun l_0_2_5 () Real)
(declare-fun l_0_2_18 () Real)
(declare-fun l_0_2_12 () Real)
(declare-fun l_0_2_6 () Real)
(assert
 (let ((?x63 (* l_0_0_7 l_0_0_7)))
 (= (- (- _a_0_ (* (* (/ 1.0 8.0) l_0_0_1) l_0_0_1)) ?x63) 0.0)))
(assert
 (let ((?x110 (* l_0_0_9 l_0_0_9)))
 (let ((?x108 (* l_0_0_8 l_0_0_8)))
 (let ((?x85 (* l_0_0_1 l_0_0_1)))
 (let ((?x104 (- (+ (- _a_1_ (* (* 2.0 l_0_0_1) l_0_0_2)) ?x85) (* (* (/ 1.0 8.0) l_0_0_2) l_0_0_2))))
 (= (- (- (- ?x104 (* (* (/ 1.0 8.0) l_0_0_3) l_0_0_3)) ?x108) ?x110) 0.0))))))
(assert
 (let ((?x147 (* l_0_0_12 l_0_0_12)))
 (let ((?x145 (* l_0_0_11 l_0_0_11)))
 (let ((?x143 (* l_0_0_10 l_0_0_10)))
 (let ((?x85 (* l_0_0_1 l_0_0_1)))
 (let ((?x146 (- (- (+ (- _a_2_ (* (* 2.0 l_0_0_1) l_0_0_4)) ?x85) ?x143) ?x145)))
 (let ((?x154 (- (- (- ?x146 ?x147) (* (* (/ 1.0 8.0) l_0_0_4) l_0_0_4)) (* (* (/ 1.0 8.0) l_0_0_5) l_0_0_5))))
 (= (- ?x154 (* (* (/ 1.0 8.0) l_0_0_6) l_0_0_6)) 0.0))))))))
(assert
 (let ((?x200 (* (* 1.0 l_0_0_1) l_0_0_1)))
 (let ((?x204 (- (- (- _a_3_ (* (* (/ 1.0 4.0) l_0_0_1) l_0_0_2)) ?x200) (* (* 2.0 l_0_0_7) l_0_0_8))))
 (= ?x204 0.0))))
(assert
 (let ((?x98 (* 2.0 l_0_0_1)))
 (let ((?x140 (* ?x98 l_0_0_4)))
 (let ((?x226 (- (- (- _a_4_ (* ?x98 l_0_0_2)) ?x140) (* (* 2.0 l_0_0_10) l_0_0_8))))
 (let ((?x232 (- (- ?x226 (* (* 2.0 l_0_0_11) l_0_0_9)) (* (* (/ 1.0 4.0) l_0_0_2) l_0_0_4))))
 (= (- ?x232 (* (* (/ 1.0 4.0) l_0_0_3) l_0_0_5)) 0.0))))))
(assert
 (let ((?x200 (* (* 1.0 l_0_0_1) l_0_0_1)))
 (let ((?x270 (- (- (- _a_5_ (* (* (/ 1.0 4.0) l_0_0_1) l_0_0_4)) ?x200) (* (* 2.0 l_0_0_10) l_0_0_7))))
 (= ?x270 0.0))))
(assert
 (let ((?x290 (* (* 1.0 l_0_0_3) l_0_0_3)))
 (let ((?x287 (* (* 1.0 l_0_0_2) l_0_0_2)))
 (let ((?x98 (* 2.0 l_0_0_1)))
 (let ((?x99 (* ?x98 l_0_0_2)))
 (= (- (- ?x99 ?x287) ?x290) 0.0))))))
(assert
 (let ((?x290 (* (* 1.0 l_0_0_3) l_0_0_3)))
 (let ((?x304 (* (* 2.0 l_0_0_3) l_0_0_5)))
 (let ((?x287 (* (* 1.0 l_0_0_2) l_0_0_2)))
 (let ((?x300 (* (* 2.0 l_0_0_2) l_0_0_4)))
 (let ((?x98 (* 2.0 l_0_0_1)))
 (let ((?x140 (* ?x98 l_0_0_4)))
 (= (- (- (- (- ?x140 ?x300) ?x287) ?x304) ?x290) 0.0))))))))
(assert
 (let ((?x127 (* l_0_0_3 l_0_0_3)))
 (let ((?x121 (* l_0_0_2 l_0_0_2)))
 (let ((?x324 (+ ?x121 ?x127)))
 (= ?x324 0.0)))))
(assert
 (let ((?x304 (* (* 2.0 l_0_0_3) l_0_0_5)))
 (let ((?x300 (* (* 2.0 l_0_0_2) l_0_0_4)))
 (= (+ ?x300 ?x304) 0.0))))
(assert
 (let ((?x187 (* l_0_0_6 l_0_0_6)))
 (let ((?x181 (* l_0_0_5 l_0_0_5)))
 (let ((?x175 (* l_0_0_4 l_0_0_4)))
 (let ((?x127 (* l_0_0_3 l_0_0_3)))
 (let ((?x121 (* l_0_0_2 l_0_0_2)))
 (let ((?x324 (+ ?x121 ?x127)))
 (= (+ (+ (+ ?x324 ?x175) ?x181) ?x187) 0.0))))))))
(assert
 (let ((?x345 (* (* 1.0 l_0_0_6) l_0_0_6)))
 (let ((?x342 (* (* 1.0 l_0_0_5) l_0_0_5)))
 (let ((?x339 (* (* 1.0 l_0_0_4) l_0_0_4)))
 (let ((?x304 (* (* 2.0 l_0_0_3) l_0_0_5)))
 (let ((?x300 (* (* 2.0 l_0_0_2) l_0_0_4)))
 (let ((?x98 (* 2.0 l_0_0_1)))
 (let ((?x99 (* ?x98 l_0_0_2)))
 (= (- (- (- (- (- ?x99 ?x300) ?x304) ?x339) ?x342) ?x345) 0.0)))))))))
(assert
 (let ((?x345 (* (* 1.0 l_0_0_6) l_0_0_6)))
 (let ((?x342 (* (* 1.0 l_0_0_5) l_0_0_5)))
 (let ((?x339 (* (* 1.0 l_0_0_4) l_0_0_4)))
 (let ((?x98 (* 2.0 l_0_0_1)))
 (let ((?x140 (* ?x98 l_0_0_4)))
 (= (- (- (- ?x140 ?x339) ?x342) ?x345) 0.0)))))))
(assert
 (let ((?x304 (* (* 2.0 l_0_0_3) l_0_0_5)))
 (let ((?x300 (* (* 2.0 l_0_0_2) l_0_0_4)))
 (= (+ ?x300 ?x304) 0.0))))
(assert
 (let ((?x187 (* l_0_0_6 l_0_0_6)))
 (= (+ (+ (* l_0_0_4 l_0_0_4) (* l_0_0_5 l_0_0_5)) ?x187) 0.0)))
(assert
 (>= l_0_0_1 0.0))
(assert
 (>= l_0_0_3 0.0))
(assert
 (>= l_0_0_6 0.0))
(assert
 (>= l_0_0_7 0.0))
(assert
 (>= l_0_0_9 0.0))
(assert
 (>= l_0_0_12 0.0))
(assert
 (let ((?x390 (+ (- (* (* (- _a_0_) l_0_1_1) l_0_1_1) (* l_0_1_13 l_0_1_13)) (* 1.0 (* l_0_1_7 l_0_1_7)))))
 (= (+ ?x390 4.0) 0.0)))
(assert
 (let ((?x429 (* l_0_1_18 l_0_1_18)))
 (let ((?x427 (* l_0_1_17 l_0_1_17)))
 (let ((?x425 (* l_0_1_16 l_0_1_16)))
 (let ((?x406 (* l_0_1_6 l_0_1_6)))
 (let ((?x407 (+ (+ (* l_0_1_4 l_0_1_4) (* l_0_1_5 l_0_1_5)) ?x406)))
 (let ((?x383 (- _a_0_)))
 (let ((?x415 (- (- (* ?x383 ?x407) (* (* _a_2_ l_0_1_1) l_0_1_1)) (* (* (* 2.0 _a_5_) l_0_1_1) l_0_1_4))))
 (let ((?x421 (+ (+ ?x415 (* 1.0 (* l_0_1_10 l_0_1_10))) (* 1.0 (* l_0_1_11 l_0_1_11)))))
 (let ((?x430 (- (- (- (+ ?x421 (* 1.0 (* l_0_1_12 l_0_1_12))) ?x425) ?x427) ?x429)))
 (= (- ?x430 1.0) 0.0)))))))))))
(assert
 (let ((?x469 (- (* (* (* (- 2.0) _a_0_) l_0_1_1) l_0_1_2) (* (* _a_3_ l_0_1_1) l_0_1_1))))
 (let ((?x475 (+ (- ?x469 (* (* 2.0 l_0_1_13) l_0_1_14)) (* (* 2.0 l_0_1_7) l_0_1_8))))
 (= ?x475 0.0))))
(assert
 (let ((?x497 (- (* (* (* (- 2.0) _a_0_) l_0_1_1) l_0_1_4) (* (* _a_5_ l_0_1_1) l_0_1_1))))
 (let ((?x502 (- (+ ?x497 (* (* 2.0 l_0_1_10) l_0_1_7)) (* (* 2.0 l_0_1_13) l_0_1_16))))
 (= ?x502 0.0))))
(assert
 (let ((?x537 (* l_0_1_15 l_0_1_15)))
 (let ((?x535 (* l_0_1_14 l_0_1_14)))
 (let ((?x530 (- (* (- _a_0_) (+ (* l_0_1_2 l_0_1_2) (* l_0_1_3 l_0_1_3))) (* (* _a_1_ l_0_1_1) l_0_1_1))))
 (let ((?x538 (- (- (- ?x530 (* (* (* 2.0 _a_3_) l_0_1_1) l_0_1_2)) ?x535) ?x537)))
 (let ((?x544 (+ (+ ?x538 (* 1.0 (* l_0_1_8 l_0_1_8))) (* 1.0 (* l_0_1_9 l_0_1_9)))))
 (= ?x544 0.0)))))))
(assert
 (let ((?x575 (+ (* (* 2.0 l_0_1_2) l_0_1_4) (* (* 2.0 l_0_1_3) l_0_1_5))))
 (let ((?x383 (- _a_0_)))
 (let ((?x581 (- (- (* ?x383 ?x575) (* (* (* 2.0 _a_3_) l_0_1_1) l_0_1_4)) (* (* _a_4_ l_0_1_1) l_0_1_1))))
 (let ((?x585 (+ (- ?x581 (* (* (* 2.0 _a_5_) l_0_1_1) l_0_1_2)) (* (* 2.0 l_0_1_10) l_0_1_8))))
 (let ((?x591 (- (+ ?x585 (* (* 2.0 l_0_1_11) l_0_1_9)) (* (* 2.0 l_0_1_14) l_0_1_16))))
 (= (- ?x591 (* (* 2.0 l_0_1_15) l_0_1_17)) 0.0)))))))
(assert
 (let ((?x648 (- (* (* (* (- 2.0) _a_1_) l_0_1_1) l_0_1_2) (* _a_3_ (+ (* l_0_1_2 l_0_1_2) (* l_0_1_3 l_0_1_3))))))
 (= ?x648 0.0)))
(assert
 (let ((?x575 (+ (* (* 2.0 l_0_1_2) l_0_1_4) (* (* 2.0 l_0_1_3) l_0_1_5))))
 (let ((?x673 (- (- (* (* (* (- 2.0) _a_1_) l_0_1_1) l_0_1_4) (* _a_3_ ?x575)) (* (* (* 2.0 _a_4_) l_0_1_1) l_0_1_2))))
 (let ((?x675 (- ?x673 (* _a_5_ (+ (* l_0_1_2 l_0_1_2) (* l_0_1_3 l_0_1_3))))))
 (= ?x675 0.0)))))
(assert
 (= (* (- _a_1_) (+ (* l_0_1_2 l_0_1_2) (* l_0_1_3 l_0_1_3))) 0.0))
(assert
 (let ((?x575 (+ (* (* 2.0 l_0_1_2) l_0_1_4) (* (* 2.0 l_0_1_3) l_0_1_5))))
 (let ((?x719 (- _a_1_)))
 (let ((?x732 (- (* ?x719 ?x575) (* _a_4_ (+ (* l_0_1_2 l_0_1_2) (* l_0_1_3 l_0_1_3))))))
 (= ?x732 0.0)))))
(assert
 (let ((?x575 (+ (* (* 2.0 l_0_1_2) l_0_1_4) (* (* 2.0 l_0_1_3) l_0_1_5))))
 (let ((?x406 (* l_0_1_6 l_0_1_6)))
 (let ((?x407 (+ (+ (* l_0_1_4 l_0_1_4) (* l_0_1_5 l_0_1_5)) ?x406)))
 (let ((?x719 (- _a_1_)))
 (let ((?x755 (- (* ?x719 ?x407) (* _a_2_ (+ (* l_0_1_2 l_0_1_2) (* l_0_1_3 l_0_1_3))))))
 (= (- ?x755 (* _a_4_ ?x575)) 0.0)))))))
(assert
 (let ((?x575 (+ (* (* 2.0 l_0_1_2) l_0_1_4) (* (* 2.0 l_0_1_3) l_0_1_5))))
 (let ((?x406 (* l_0_1_6 l_0_1_6)))
 (let ((?x407 (+ (+ (* l_0_1_4 l_0_1_4) (* l_0_1_5 l_0_1_5)) ?x406)))
 (let ((?x804 (- (- (* (* (* (- 2.0) _a_2_) l_0_1_1) l_0_1_2) (* _a_3_ ?x407)) (* (* (* 2.0 _a_4_) l_0_1_1) l_0_1_4))))
 (= (- ?x804 (* _a_5_ ?x575)) 0.0))))))
(assert
 (let ((?x406 (* l_0_1_6 l_0_1_6)))
 (let ((?x407 (+ (+ (* l_0_1_4 l_0_1_4) (* l_0_1_5 l_0_1_5)) ?x406)))
 (= (- (* (* (* (- 2.0) _a_2_) l_0_1_1) l_0_1_4) (* _a_5_ ?x407)) 0.0))))
(assert
 (let ((?x406 (* l_0_1_6 l_0_1_6)))
 (let ((?x407 (+ (+ (* l_0_1_4 l_0_1_4) (* l_0_1_5 l_0_1_5)) ?x406)))
 (let ((?x575 (+ (* (* 2.0 l_0_1_2) l_0_1_4) (* (* 2.0 l_0_1_3) l_0_1_5))))
 (let ((?x877 (- _a_2_)))
 (= (- (* ?x877 ?x575) (* _a_4_ ?x407)) 0.0))))))
(assert
 (let ((?x406 (* l_0_1_6 l_0_1_6)))
 (let ((?x407 (+ (+ (* l_0_1_4 l_0_1_4) (* l_0_1_5 l_0_1_5)) ?x406)))
 (let ((?x877 (- _a_2_)))
 (= (* ?x877 ?x407) 0.0)))))
(assert
 (>= l_0_1_1 0.0))
(assert
 (>= l_0_1_3 0.0))
(assert
 (>= l_0_1_6 0.0))
(assert
 (>= l_0_1_7 0.0))
(assert
 (>= l_0_1_9 0.0))
(assert
 (>= l_0_1_12 0.0))
(assert
 (>= l_0_1_13 0.0))
(assert
 (>= l_0_1_15 0.0))
(assert
 (>= l_0_1_18 0.0))
(assert
 (let ((?x928 (* l_0_2_13 l_0_2_13)))
 (let ((?x932 (- (- (+ (* (* (- _a_0_) l_0_2_1) l_0_2_1) _a_0_) ?x928) (* (* 1.0 l_0_2_7) l_0_2_7))))
 (= ?x932 0.0))))
(assert
 (let ((?x966 (* l_0_2_15 l_0_2_15)))
 (let ((?x964 (* l_0_2_14 l_0_2_14)))
 (let ((?x962 (* (/ 888888888888889.0 10000000000000000.0) _a_4_)))
 (let ((?x956 (* (/ 1.0 100.0) _a_2_)))
 (let ((?x953 (* (/ 790123456790123.0 1000000000000000.0) _a_1_)))
 (let ((?x951 (- (* (- _a_0_) (+ (* l_0_2_2 l_0_2_2) (* l_0_2_3 l_0_2_3))) (* (* _a_1_ l_0_2_1) l_0_2_1))))
 (let ((?x960 (- (+ (+ ?x951 ?x953) ?x956) (* (* (* 2.0 _a_3_) l_0_2_1) l_0_2_2))))
 (let ((?x970 (- (- (- (+ ?x960 ?x962) ?x964) ?x966) (* (* 1.0 l_0_2_8) l_0_2_8))))
 (= (- ?x970 (* (* 1.0 l_0_2_9) l_0_2_9)) 0.0))))))))))
(assert
 (let ((?x1025 (* (/ 198611111111111.0 250000000000000.0) _a_4_)))
 (let ((?x1017 (* (/ 9.0 50.0) _a_2_)))
 (let ((?x1014 (* (/ 493827160493827.0 5000000000000000.0) _a_1_)))
 (let ((?x1011 (+ (* (* 2.0 l_0_2_2) l_0_2_4) (* (* 2.0 l_0_2_3) l_0_2_5))))
 (let ((?x383 (- _a_0_)))
 (let ((?x1020 (- (+ (- (* ?x383 ?x1011) ?x1014) ?x1017) (* (* (* 2.0 _a_3_) l_0_2_1) l_0_2_4))))
 (let ((?x1029 (- (+ (- ?x1020 (* (* _a_4_ l_0_2_1) l_0_2_1)) ?x1025) (* (* (* 2.0 _a_5_) l_0_2_1) l_0_2_2))))
 (let ((?x1035 (- (- ?x1029 (* (* 2.0 l_0_2_10) l_0_2_8)) (* (* 2.0 l_0_2_11) l_0_2_9))))
 (let ((?x1041 (- (- ?x1035 (* (* 2.0 l_0_2_14) l_0_2_16)) (* (* 2.0 l_0_2_15) l_0_2_17))))
 (= ?x1041 0.0)))))))))))
(assert
 (let ((?x1140 (* l_0_2_18 l_0_2_18)))
 (let ((?x1138 (* l_0_2_17 l_0_2_17)))
 (let ((?x1136 (* l_0_2_16 l_0_2_16)))
 (let ((?x1123 (* (/ 1.0 20.0) _a_4_)))
 (let ((?x1120 (* (/ 81.0 100.0) _a_2_)))
 (let ((?x1114 (* (/ 154320987654321.0 50000000000000000.0) _a_1_)))
 (let ((?x1110 (* l_0_2_6 l_0_2_6)))
 (let ((?x1111 (+ (+ (* l_0_2_4 l_0_2_4) (* l_0_2_5 l_0_2_5)) ?x1110)))
 (let ((?x383 (- _a_0_)))
 (let ((?x1121 (+ (- (+ (* ?x383 ?x1111) ?x1114) (* (* _a_2_ l_0_2_1) l_0_2_1)) ?x1120)))
 (let ((?x1129 (- (- (- ?x1121 ?x1123) (* (* (* 2.0 _a_5_) l_0_2_1) l_0_2_4)) (* (* 1.0 l_0_2_10) l_0_2_10))))
 (let ((?x1135 (- (- ?x1129 (* (* 1.0 l_0_2_11) l_0_2_11)) (* (* 1.0 l_0_2_12) l_0_2_12))))
 (= (- (- (- ?x1135 ?x1136) ?x1138) ?x1140) 0.0))))))))))))))
(assert
 (let ((?x1199 (* (/ 1.0 10.0) _a_5_)))
 (let ((?x1196 (* (/ 888888888888889.0 1000000000000000.0) _a_3_)))
 (let ((?x1194 (- (* (* (* (- 2.0) _a_0_) l_0_2_1) l_0_2_2) (* (* _a_3_ l_0_2_1) l_0_2_1))))
 (let ((?x1206 (- (- (+ (+ ?x1194 ?x1196) ?x1199) (* (* 2.0 l_0_2_13) l_0_2_14)) (* (* 2.0 l_0_2_7) l_0_2_8))))
 (= ?x1206 0.0))))))
(assert
 (let ((?x1235 (* (/ 9.0 10.0) _a_5_)))
 (let ((?x1233 (- (- (* (* (* (- 2.0) _a_0_) l_0_2_1) l_0_2_4) (* (/ 138888888888889.0 2500000000000000.0) _a_3_)) (* (* _a_5_ l_0_2_1) l_0_2_1))))
 (let ((?x1240 (- (- (+ ?x1233 ?x1235) (* (* 2.0 l_0_2_10) l_0_2_7)) (* (* 2.0 l_0_2_13) l_0_2_16))))
 (= ?x1240 0.0)))))
(assert
 (let ((?x1276 (- (* (* (* (- 2.0) _a_1_) l_0_2_1) l_0_2_2) (* _a_3_ (+ (* l_0_2_2 l_0_2_2) (* l_0_2_3 l_0_2_3))))))
 (= ?x1276 0.0)))
(assert
 (let ((?x1011 (+ (* (* 2.0 l_0_2_2) l_0_2_4) (* (* 2.0 l_0_2_3) l_0_2_5))))
 (let ((?x1300 (- (- (* (* (* (- 2.0) _a_1_) l_0_2_1) l_0_2_4) (* _a_3_ ?x1011)) (* (* (* 2.0 _a_4_) l_0_2_1) l_0_2_2))))
 (let ((?x1302 (- ?x1300 (* _a_5_ (+ (* l_0_2_2 l_0_2_2) (* l_0_2_3 l_0_2_3))))))
 (= ?x1302 0.0)))))
(assert
 (= (* (- _a_1_) (+ (* l_0_2_2 l_0_2_2) (* l_0_2_3 l_0_2_3))) 0.0))
(assert
 (let ((?x1011 (+ (* (* 2.0 l_0_2_2) l_0_2_4) (* (* 2.0 l_0_2_3) l_0_2_5))))
 (let ((?x719 (- _a_1_)))
 (let ((?x1357 (- (* ?x719 ?x1011) (* _a_4_ (+ (* l_0_2_2 l_0_2_2) (* l_0_2_3 l_0_2_3))))))
 (= ?x1357 0.0)))))
(assert
 (let ((?x1011 (+ (* (* 2.0 l_0_2_2) l_0_2_4) (* (* 2.0 l_0_2_3) l_0_2_5))))
 (let ((?x1110 (* l_0_2_6 l_0_2_6)))
 (let ((?x1111 (+ (+ (* l_0_2_4 l_0_2_4) (* l_0_2_5 l_0_2_5)) ?x1110)))
 (let ((?x719 (- _a_1_)))
 (let ((?x1380 (- (* ?x719 ?x1111) (* _a_2_ (+ (* l_0_2_2 l_0_2_2) (* l_0_2_3 l_0_2_3))))))
 (= (- ?x1380 (* _a_4_ ?x1011)) 0.0)))))))
(assert
 (let ((?x1011 (+ (* (* 2.0 l_0_2_2) l_0_2_4) (* (* 2.0 l_0_2_3) l_0_2_5))))
 (let ((?x1110 (* l_0_2_6 l_0_2_6)))
 (let ((?x1111 (+ (+ (* l_0_2_4 l_0_2_4) (* l_0_2_5 l_0_2_5)) ?x1110)))
 (let ((?x1428 (- (- (* (* (* (- 2.0) _a_2_) l_0_2_1) l_0_2_2) (* _a_3_ ?x1111)) (* (* (* 2.0 _a_4_) l_0_2_1) l_0_2_4))))
 (= (- ?x1428 (* _a_5_ ?x1011)) 0.0))))))
(assert
 (let ((?x1110 (* l_0_2_6 l_0_2_6)))
 (let ((?x1111 (+ (+ (* l_0_2_4 l_0_2_4) (* l_0_2_5 l_0_2_5)) ?x1110)))
 (= (- (* (* (* (- 2.0) _a_2_) l_0_2_1) l_0_2_4) (* _a_5_ ?x1111)) 0.0))))
(assert
 (let ((?x1110 (* l_0_2_6 l_0_2_6)))
 (let ((?x1111 (+ (+ (* l_0_2_4 l_0_2_4) (* l_0_2_5 l_0_2_5)) ?x1110)))
 (let ((?x1011 (+ (* (* 2.0 l_0_2_2) l_0_2_4) (* (* 2.0 l_0_2_3) l_0_2_5))))
 (let ((?x877 (- _a_2_)))
 (= (- (* ?x877 ?x1011) (* _a_4_ ?x1111)) 0.0))))))
(assert
 (let ((?x1110 (* l_0_2_6 l_0_2_6)))
 (let ((?x1111 (+ (+ (* l_0_2_4 l_0_2_4) (* l_0_2_5 l_0_2_5)) ?x1110)))
 (let ((?x877 (- _a_2_)))
 (= (* ?x877 ?x1111) 0.0)))))
(assert
 (>= l_0_2_1 0.0))
(assert
 (>= l_0_2_3 0.0))
(assert
 (>= l_0_2_6 0.0))
(assert
 (>= l_0_2_7 0.0))
(assert
 (>= l_0_2_9 0.0))
(assert
 (>= l_0_2_12 0.0))
(assert
 (>= l_0_2_13 0.0))
(assert
 (>= l_0_2_15 0.0))
(assert
 (>= l_0_2_18 0.0))
(check-sat)
(get-model)